10
1 0 39
2 0 115
3 0 1
3 1 42
4 0 36
4 2 76
4 3 106
5 0 104
5 1 90
5 2 117
5 4 156
6 0 150
6 1 23
6 2 37
6 3 51
6 4 111
7 2 41
7 3 8
7 4 100
7 6 160
8 0 160
8 1 63
8 2 84
8 3 22
8 4 48
8 5 7
8 6 129
8 7 140
9 1 31
9 2 68
9 3 108
9 4 17
9 5 64
9 6 156
9 7 156
9 8 60
